data;


param d:= 100;
param r:=5;
param p:=0.700000;
param M:=1000;
param U:=
         1         1       -4.261687e-01
         2         1       -1.774130e-01
         3         1       -8.805837e-01
         4         1       -1.677773e-01
         5         1        1.591331e-01
         6         1       -4.979959e-01
         7         1        1.308868e-01
         8         1       -1.118428e+00
         9         1        5.269726e-01
        10         1       -1.496144e+00
        11         1        6.519032e-01
        12         1       -2.586354e+00
        13         1        1.123718e+00
        14         1        5.804948e-01
        15         1       -8.226072e-01
        16         1        1.926392e+00
        17         1       -3.571555e-01
        18         1        4.768610e-02
        19         1       -1.940513e+00
        20         1        5.304440e-01
        21         1        4.722755e-01
        22         1       -1.177256e+00
        23         1       -9.968605e-01
        24         1       -1.461962e+00
        25         1       -8.813556e-01
        26         1       -5.150300e-01
        27         1        6.867812e-01
        28         1        1.734509e+00
        29         1        6.621355e-01
        30         1        5.024127e-01
        31         1       -8.395550e-01
        32         1        1.048994e-01
        33         1       -4.245793e-01
        34         1       -7.243341e-01
        35         1        4.083279e-01
        36         1        5.767985e-01
        37         1        8.166101e-01
        38         1       -2.066885e-01
        39         1        4.535543e-01
        40         1       -1.022454e+00
        41         1        2.463189e-01
        42         1       -5.886976e-01
        43         1       -1.735212e-01
        44         1        5.880326e-01
        45         1        1.346061e+00
        46         1       -1.906563e+00
        47         1       -1.147766e+00
        48         1       -8.279022e-01
        49         1       -2.347339e-01
        50         1       -1.017556e+00
        51         1        1.896296e-01
        52         1       -5.833978e-01
        53         1        1.893302e+00
        54         1        2.214524e-01
        55         1        4.454915e-01
        56         1        8.205620e-01
        57         1        7.935277e-01
        58         1       -7.644461e-01
        59         1       -1.887428e+00
        60         1       -1.402123e+00
        61         1       -8.773452e-01
        62         1       -4.076388e-01
        63         1       -1.719759e+00
        64         1       -6.976746e-01
        65         1        1.235381e-02
        66         1       -7.721435e-01
        67         1       -7.441748e-01
        68         1        5.393245e-01
        69         1       -7.134773e-01
        70         1        2.053800e+00
        71         1       -9.930639e-02
        72         1        1.869115e-01
        73         1        1.901868e+00
        74         1        1.942178e+00
        75         1       -3.248329e-01
        76         1       -6.612050e-01
        77         1        1.203484e-01
        78         1       -1.677656e+00
        79         1       -6.589218e-01
        80         1       -8.665614e-01
        81         1       -1.122615e+00
        82         1       -8.478601e-01
        83         1        1.094989e+00
        84         1       -1.654704e+00
        85         1       -1.206657e-01
        86         1        1.444956e+00
        87         1        1.125963e+00
        88         1       -1.863265e-01
        89         1       -9.446497e-01
        90         1        6.623245e-01
        91         1        9.222191e-01
        92         1        2.363283e-01
        93         1        6.825804e-01
        94         1        6.984182e-01
        95         1        1.098328e+00
        96         1        3.963256e-01
        97         1        1.669580e-01
        98         1       -1.728388e+00
        99         1       -2.763232e+00
       100         1       -2.518525e-01
         1         2        5.011413e-01
         2         2       -6.414062e-01
         3         2        1.008636e+00
         4         2       -3.273280e-01
         5         2       -2.129123e-01
         6         2        9.715661e-01
         7         2       -8.117170e-01
         8         2       -2.586056e-01
         9         2       -6.052142e-01
        10         2        8.567036e-01
        11         2       -7.529718e-01
        12         2        2.195621e-01
        13         2       -5.642335e-01
        14         2        1.236608e+00
        15         2       -1.484617e-01
        16         2       -7.497698e-01
        17         2       -5.637354e-01
        18         2        3.789418e-01
        19         2        2.270600e-01
        20         2        9.850092e-01
        21         2        1.563161e+00
        22         2        8.562087e-01
        23         2        1.587046e-01
        24         2        9.298633e-01
        25         2        3.583472e-01
        26         2        6.570220e-01
        27         2        4.885455e-01
        28         2       -2.317502e+00
        29         2        3.159921e-01
        30         2       -4.478298e-01
        31         2        4.215178e-02
        32         2       -6.868683e-01
        33         2       -8.147950e-01
        34         2       -1.225014e+00
        35         2       -1.000643e+00
        36         2       -2.061067e-01
        37         2       -1.511715e+00
        38         2       -1.293049e+00
        39         2       -8.618388e-02
        40         2        3.390811e-01
        41         2        4.493893e-01
        42         2       -5.598805e-01
        43         2       -5.523792e-01
        44         2        1.744852e+00
        45         2        9.357332e-01
        46         2       -5.422197e-01
        47         2        1.149933e-01
        48         2        9.332525e-01
        49         2        1.041476e+00
        50         2       -2.921325e-01
        51         2        8.711833e-01
        52         2        7.695097e-01
        53         2        2.463593e-01
        54         2       -1.183821e+00
        55         2       -9.228839e-01
        56         2       -1.203147e+00
        57         2       -5.359952e-01
        58         2        1.745748e+00
        59         2       -1.928564e+00
        60         2        1.813969e+00
        61         2       -2.542369e-01
        62         2       -5.225730e-02
        63         2       -1.590747e+00
        64         2        7.824030e-01
        65         2       -3.916262e-01
        66         2        6.983149e-01
        67         2        1.249099e+00
        68         2       -1.458902e+00
        69         2       -5.915347e-01
        70         2       -1.087842e+00
        71         2        2.883143e-01
        72         2       -1.089022e+00
        73         2       -7.335853e-01
        74         2        2.248562e-01
        75         2        5.020773e-01
        76         2       -9.149434e-01
        77         2        4.000054e-01
        78         2        1.705534e-01
        79         2       -1.630178e+00
        80         2        3.293498e-01
        81         2        3.180871e-02
        82         2        1.091773e-01
        83         2       -8.471293e-01
        84         2       -8.922122e-01
        85         2        9.617343e-01
        86         2        1.301178e+00
        87         2        1.370950e-01
        88         2        3.074611e-01
        89         2        3.110495e-01
        90         2       -3.819414e-01
        91         2        1.615316e+00
        92         2       -7.244357e-01
        93         2       -8.998464e-01
        94         2       -6.713686e-02
        95         2        3.771334e-01
        96         2        1.024452e+00
        97         2       -4.847983e-01
        98         2       -4.187914e-03
        99         2        4.839299e-01
       100         2       -8.536536e-01
         1         3        9.133794e-01
         2         3       -1.141115e+00
         3         3       -1.751334e+00
         4         3        8.242088e-01
         5         3       -8.915651e-01
         6         3        3.103408e-01
         7         3       -6.464994e-01
         8         3        3.704509e-01
         9         3        1.775502e+00
        10         3        9.363056e-01
        11         3       -8.888780e-01
        12         3       -5.530301e-01
        13         3        1.210720e-01
        14         3       -3.279969e-01
        15         3        4.368290e-01
        16         3        6.008795e-01
        17         3       -1.694882e-02
        18         3       -2.103401e-01
        19         3        3.602918e-01
        20         3       -2.397981e-01
        21         3        5.803808e-01
        22         3       -2.923754e+00
        23         3       -8.577072e-01
        24         3       -2.613169e-02
        25         3        2.111071e+00
        26         3        3.014281e-01
        27         3       -6.553175e-01
        28         3       -8.927536e-01
        29         3       -9.425844e-01
        30         3       -8.362274e-01
        31         3        1.303625e+00
        32         3       -9.477378e-01
        33         3        3.563780e-01
        34         3       -4.832157e-01
        35         3       -2.147159e-01
        36         3       -5.342045e-01
        37         3       -1.109207e-01
        38         3        9.657107e-01
        39         3        1.178834e+00
        40         3       -1.093272e+00
        41         3       -8.276814e-01
        42         3       -2.059432e+00
        43         3       -6.656117e-02
        44         3       -7.251143e-01
        45         3        1.130838e-02
        46         3        4.137021e-02
        47         3       -1.351308e+00
        48         3        2.886242e-01
        49         3        1.808143e-01
        50         3       -1.788494e+00
        51         3       -6.465156e-01
        52         3        2.708837e+00
        53         3       -9.499567e-02
        54         3       -7.312529e-01
        55         3       -1.237379e+00
        56         3        7.419142e-01
        57         3       -5.100033e-01
        58         3        1.464002e+00
        59         3        3.327892e-01
        60         3       -5.848163e-01
        61         3        9.384798e-01
        62         3        9.303489e-02
        63         3        1.250256e+00
        64         3       -5.062956e-03
        65         3       -5.994717e-01
        66         3        6.036086e-01
        67         3       -6.920519e-01
        68         3       -5.764179e-01
        69         3        3.100745e-01
        70         3       -8.564561e-02
        71         3       -1.264063e+00
        72         3        4.283798e-01
        73         3       -2.474328e-01
        74         3        2.184797e+00
        75         3        2.489803e+00
        76         3       -4.343662e-01
        77         3        1.416150e-01
        78         3       -5.011311e-01
        79         3       -1.581145e+00
        80         3       -8.961671e-01
        81         3        1.885175e+00
        82         3        9.909774e-01
        83         3       -3.388382e-02
        84         3       -2.220170e-02
        85         3       -1.339340e+00
        86         3        5.321718e-01
        87         3        3.716556e-01
        88         3       -1.392839e+00
        89         3       -2.020935e+00
        90         3       -1.455690e+00
        91         3        7.677908e-01
        92         3       -1.083387e-01
        93         3       -1.717569e-01
        94         3       -8.720629e-01
        95         3        5.155566e-01
        96         3       -8.529288e-01
        97         3        7.499993e-01
        98         3        7.082552e-02
        99         3       -4.414474e-01
       100         3       -1.204841e+00
         1         4        7.045684e-01
         2         4        2.384086e+00
         3         4       -1.066787e-01
         4         4        6.048780e-01
         5         4       -3.276748e-01
         6         4        5.478951e-01
         7         4        4.412899e-01
         8         4       -9.638496e-02
         9         4        1.569635e+00
        10         4       -1.285445e+00
        11         4       -3.959659e-01
        12         4       -7.557935e-01
        13         4        2.715298e-01
        14         4       -1.239994e+00
        15         4       -1.713499e+00
        16         4        4.150413e-01
        17         4        8.570463e-01
        18         4       -7.288822e-01
        19         4        8.557921e-01
        20         4        3.108612e-01
        21         4        1.455491e+00
        22         4        5.775920e-01
        23         4        1.132398e+00
        24         4       -1.577230e-01
        25         4       -8.505392e-01
        26         4       -7.671687e-01
        27         4       -1.191596e+00
        28         4       -3.243623e-02
        29         4        1.199727e+00
        30         4       -7.383492e-01
        31         4       -1.232522e+00
        32         4        2.624995e-01
        33         4       -4.988027e-01
        34         4       -5.936928e-02
        35         4        1.489060e+00
        36         4        6.515494e-01
        37         4        8.350695e-02
        38         4        5.327070e-01
        39         4        8.364338e-01
        40         4        3.465716e-01
        41         4       -1.599072e+00
        42         4       -9.852683e-01
        43         4        5.187407e-01
        44         4       -1.670290e+00
        45         4       -2.966614e-01
        46         4       -1.707407e+00
        47         4        1.491628e-01
        48         4        1.299456e+00
        49         4       -1.849396e-01
        50         4        5.563600e-02
        51         4        3.881061e-01
        52         4        4.432588e-01
        53         4        9.061561e-01
        54         4       -5.256990e-01
        55         4        1.232206e+00
        56         4        1.602800e-01
        57         4       -1.928877e+00
        58         4        4.051937e-01
        59         4        5.566230e-01
        60         4        1.537937e+00
        61         4       -1.284799e+00
        62         4        3.345318e-01
        63         4       -1.001324e+00
        64         4       -5.722546e-01
        65         4        1.186381e+00
        66         4       -6.741376e-01
        67         4       -1.456835e+00
        68         4       -1.357636e-01
        69         4        5.880918e-01
        70         4       -6.898221e-01
        71         4        9.517870e-01
        72         4        4.483777e-01
        73         4       -8.696067e-01
        74         4       -5.502836e-01
        75         4        1.089199e+00
        76         4        1.461098e-01
        77         4       -1.451254e+00
        78         4       -1.851378e+00
        79         4        3.726527e-01
        80         4       -7.688184e-01
        81         4       -1.819323e-01
        82         4       -4.238606e-01
        83         4       -1.793749e+00
        84         4       -3.100482e-01
        85         4       -1.219699e+00
        86         4        2.408709e-01
        87         4        1.048281e+00
        88         4        6.450809e-01
        89         4       -6.741980e-01
        90         4       -2.041144e-01
        91         4       -1.704706e+00
        92         4       -4.336182e-01
        93         4       -8.648963e-01
        94         4       -5.936320e-02
        95         4       -2.940896e-01
        96         4        2.024453e+00
        97         4        1.358925e-01
        98         4       -8.416263e-01
        99         4       -3.199989e-01
       100         4       -8.616688e-02
         1         5        6.375705e-01
         2         5       -2.132766e-01
         3         5        1.910976e+00
         4         5       -8.749620e-01
         5         5       -1.480874e+00
         6         5        1.114224e+00
         7         5        9.582527e-01
         8         5       -1.086357e+00
         9         5       -4.611201e-01
        10         5       -9.662858e-02
        11         5        9.219721e-01
        12         5       -7.181664e-01
        13         5        7.247055e-01
        14         5       -6.951821e-01
        15         5        1.620234e+00
        16         5       -8.779086e-01
        17         5       -8.266683e-01
        18         5       -2.486375e-01
        19         5        5.458664e-02
        20         5       -2.691175e-01
        21         5        2.646812e-01
        22         5       -1.661112e+00
        23         5       -3.262461e-02
        24         5        7.621304e-01
        25         5       -2.307393e-01
        26         5        1.753770e-01
        27         5        2.124306e+00
        28         5        2.599702e-01
        29         5       -1.696526e+00
        30         5       -5.009843e-01
        31         5        3.448404e+00
        32         5        1.489262e+00
        33         5        5.350660e-01
        34         5        6.356170e-01
        35         5       -1.390822e+00
        36         5       -1.331035e+00
        37         5        4.867278e-01
        38         5        9.904001e-01
        39         5       -8.636406e-01
        40         5        1.618460e+00
        41         5        4.700886e-02
        42         5       -1.433658e-01
        43         5        1.075526e+00
        44         5       -9.597378e-01
        45         5       -1.048216e+00
        46         5       -3.723166e-01
        47         5       -6.368619e-01
        48         5       -1.474773e+00
        49         5        8.348949e-01
        50         5       -1.674894e+00
        51         5        2.505256e-01
        52         5        1.308577e-01
        53         5       -3.747740e-01
        54         5        1.442090e+00
        55         5        8.641457e-01
        56         5       -1.859800e+00
        57         5        1.870345e+00
        58         5       -2.250744e+00
        59         5        1.088873e-01
        60         5       -1.369107e-01
        61         5       -2.695992e+00
        62         5        6.918346e-01
        63         5       -5.269857e-01
        64         5       -1.011294e+00
        65         5       -1.345820e+00
        66         5        1.628055e+00
        67         5       -2.351528e-03
        68         5       -1.839400e+00
        69         5       -3.175458e-01
        70         5        1.304512e+00
        71         5       -2.191521e-01
        72         5        1.720727e-01
        73         5        1.545144e+00
        74         5        2.053295e+00
        75         5        4.802563e-01
        76         5       -4.907268e-01
        77         5       -6.235750e-01
        78         5       -1.527147e+00
        79         5       -1.597903e+00
        80         5       -1.548254e+00
        81         5       -1.973298e+00
        82         5       -1.696759e+00
        83         5       -5.118297e-01
        84         5        1.097160e-01
        85         5       -1.578621e+00
        86         5       -9.111829e-01
        87         5        8.773695e-02
        88         5        4.090493e-01
        89         5        3.289666e-01
        90         5       -1.985469e+00
        91         5        5.193270e-01
        92         5       -1.784446e+00
        93         5       -4.290331e-01
        94         5       -2.330225e-01
        95         5        1.519816e-01
        96         5        1.606787e+00
        97         5        6.676276e-01
        98         5       -7.211448e-01
        99         5        8.446667e-01
       100         5        2.708069e-01
;

param theta:=
    1        1.281384e+00
    2       -7.949476e-01
    3        6.494476e-01
    4       -2.553756e-01
    5       -1.486848e-01
;
param X_true:=
    1       -6.260014e-01
    2       -1.035671e+00
    3       -3.324469e+00
    4        5.561244e-01
    5        9.800353e-02
    6       -1.514505e+00
    7        1.379489e-01
    8       -8.008307e-01
    9        1.977178e+00
   10       -1.647449e+00
   11        8.206685e-01
   12       -3.548025e+00
   13        1.789986e+00
   14       -3.219149e-02
   15       -4.556775e-01
   16        3.479255e+00
   17       -1.164763e-01
   18       -1.536323e-01
   19       -2.659717e+00
   20       -2.984372e-01
   21       -6.715890e-01
   22       -3.988505e+00
   23       -2.244895e+00
   24       -2.702537e+00
   25        2.083222e-01
   26       -8.166473e-01
   27        5.452026e-02
   28        3.454699e+00
   29       -6.903986e-02
   30        7.197440e-01
   31       -4.606342e-01
   32       -2.235320e-01
   33        3.829449e-01
   34       -3.474969e-01
   35        1.005761e+00
   36        5.875216e-01
   37        2.082394e+00
   38        1.106939e+00
   39        1.330086e+00
   40       -2.618878e+00
   41       -1.777731e-01
   42       -1.373836e+00
   43       -1.188508e-01
   44       -5.352441e-01
   45        1.219921e+00
   46       -1.493748e+00
   47       -2.383147e+00
   48       -1.727874e+00
   49       -1.088181e+00
   50       -1.998360e+00
   51       -1.005797e+00
   52        2.673175e-01
   53        1.992823e+00
   54        6.697644e-01
   55        5.771688e-02
   56        2.725321e+00
   57        1.326177e+00
   58       -1.185359e+00
   59       -8.276210e-01
   60       -3.990871e+00
   61        4.163418e-01
   62       -6.086753e-01
   63        2.069327e-01
   64       -1.222743e+00
   65       -1.650429e-01
   66       -1.222433e+00
   67       -2.023604e+00
   68        1.784641e+00
   69       -3.455922e-01
   70        3.423064e+00
   71       -1.387865e+00
   72        1.243342e+00
   73        2.851828e+00
   74        3.564074e+00
   75        4.520743e-01
   76       -3.663727e-01
   77        3.915316e-01
   78       -1.910901e+00
   79       -4.328786e-01
   80       -1.527688e+00
   81        1.003959e-01
   82       -1.691107e-01
   83        2.588700e+00
   84       -1.362603e+00
   85       -1.242780e+00
   86        1.236760e+00
   87        1.294428e+00
   88       -1.613305e+00
   89       -2.646957e+00
   90        5.542563e-01
   91        7.543890e-01
   92        1.184411e+00
   93        1.763095e+00
   94        4.317598e-01
   95        1.494912e+00
   96       -1.616374e+00
   97        9.524421e-01
   98       -1.843248e+00
   99       -4.256026e+00
  100       -4.448511e-01
;
param X:=
    1        6.152698e-01
    2       -1.035671e+00
    3       -3.324469e+00
    4        1.410993e+00
    5        9.800353e-02
    6        5.859778e-02
    7       -9.677649e-01
    8       -1.311638e+00
    9        1.977178e+00
   10       -1.647449e+00
   11        8.206685e-01
   12        4.810730e-01
   13       -1.727852e+00
   14       -1.812023e+00
   15        7.284907e-01
   16       -1.888894e-01
   17       -9.772270e-02
   18       -1.536323e-01
   19       -6.485427e-02
   20        7.743973e-01
   21        4.312423e-01
   22       -6.480302e-01
   23        4.454388e-01
   24       -2.702537e+00
   25        2.083222e-01
   26       -1.210059e+00
   27        4.777673e-01
   28        5.705864e-01
   29       -6.903986e-02
   30       -2.652258e-01
   31       -7.740865e-01
   32        1.952168e-01
   33        2.700267e-01
   34       -3.474969e-01
   35        1.005761e+00
   36       -5.333568e-01
   37       -6.091007e-01
   38       -1.688326e-01
   39        1.330086e+00
   40       -2.170813e-01
   41       -1.894228e-01
   42        1.889668e-01
   43        4.800502e-01
   44        1.262549e+00
   45        1.219921e+00
   46       -1.065761e+00
   47       -5.784724e-01
   48       -2.041468e+00
   49       -6.557642e-01
   50        1.026701e+00
   51       -1.005797e+00
   52        2.673175e-01
   53       -2.864210e-02
   54        7.492368e-01
   55        1.062254e+00
   56        3.093401e-01
   57        3.969425e-01
   58       -1.185359e+00
   59        7.415896e-01
   60       -1.045511e-01
   61       -2.222020e-01
   62        1.867372e+00
   63        2.069327e-01
   64        4.799397e-01
   65       -1.650429e-01
   66       -1.222433e+00
   67        9.222575e-01
   68       -1.302374e+00
   69        1.982487e-01
   70        1.743200e+00
   71        8.568594e-01
   72        1.243342e+00
   73       -4.678872e-02
   74        3.564074e+00
   75        1.866787e+00
   76        4.706846e-01
   77        3.915316e-01
   78       -1.910901e+00
   79        1.913368e-01
   80       -1.527688e+00
   81        1.144350e-01
   82        1.423302e-01
   83        2.588700e+00
   84       -1.777699e-01
   85        8.832257e-01
   86       -2.287664e+00
   87       -8.613354e-01
   88        3.126827e-01
   89        1.438922e-01
   90        5.542563e-01
   91        4.086806e-01
   92        1.184411e+00
   93        1.318067e+00
   94       -3.868656e-03
   95       -7.016488e-01
   96       -1.911389e-01
   97        9.524421e-01
   98       -1.843248e+00
   99        9.544893e-01
  100        2.858827e-01
;
param outliervec:=
    1    1
    2    0
    3    0
    4    1
    5    0
    6    1
    7    1
    8    1
    9    0
   10    0
   11    0
   12    1
   13    1
   14    1
   15    1
   16    1
   17    1
   18    0
   19    1
   20    1
   21    1
   22    1
   23    1
   24    0
   25    0
   26    1
   27    1
   28    1
   29    0
   30    1
   31    1
   32    1
   33    1
   34    0
   35    0
   36    1
   37    1
   38    1
   39    0
   40    1
   41    1
   42    1
   43    1
   44    1
   45    0
   46    1
   47    1
   48    1
   49    1
   50    1
   51    0
   52    0
   53    1
   54    1
   55    1
   56    1
   57    1
   58    0
   59    1
   60    1
   61    1
   62    1
   63    0
   64    1
   65    0
   66    0
   67    1
   68    1
   69    1
   70    1
   71    1
   72    0
   73    1
   74    0
   75    1
   76    1
   77    0
   78    0
   79    1
   80    0
   81    1
   82    1
   83    0
   84    1
   85    1
   86    1
   87    1
   88    1
   89    1
   90    0
   91    1
   92    0
   93    1
   94    1
   95    1
   96    1
   97    0
   98    0
   99    1
  100    1
;